p cnf 102 293
1 2 0
-1 -2 0
13 14 0
-13 -14 0
25 26 0
-25 -26 0
37 38 0
-37 -38 0
3 4 0
-3 -4 0
15 16 0
-15 -16 0
27 28 0
-27 -28 0
39 40 0
-39 -40 0
5 6 0
-5 -6 0
17 18 0
-17 -18 0
29 30 0
-29 -30 0
41 42 0
-41 -42 0
7 8 0
-7 -8 0
19 20 0
-19 -20 0
31 32 0
-31 -32 0
43 44 0
-43 -44 0
9 10 0
-9 -10 0
21 22 0
-21 -22 0
33 34 0
-33 -34 0
45 46 0
-45 -46 0
11 12 0
-11 -12 0
23 24 0
-23 -24 0
35 36 0
-35 -36 0
47 48 0
-47 -48 0
-1 -13 -25 -37 4 0
-1 -14 -25 -37 4 0
-1 -13 -26 -37 4 0
-1 -14 -26 -37 4 0
-1 -13 -25 -38 4 0
-1 -14 -25 -38 4 0
-1 -13 -26 -38 4 0
-1 -14 -26 -38 4 0
-2 -13 -25 -37 4 0
-2 -14 -25 -37 4 0
-2 -13 -26 -37 4 0
-2 -14 -26 -37 4 0
-2 -13 -25 -38 4 0
-2 -14 -25 -38 4 0
-2 -13 -26 -38 4 0
-2 -14 -26 -38 3 0
-13 -1 16 0
-13 -2 16 0
-14 -1 16 0
-14 -2 15 0
-25 -1 28 0
-25 -2 28 0
-26 -1 28 0
-26 -2 27 0
-37 -1 40 0
-37 -2 40 0
-38 -1 40 0
-38 -2 39 0
-3 -15 -27 -39 6 0
-3 -16 -27 -39 6 0
-3 -15 -28 -39 6 0
-3 -16 -28 -39 6 0
-3 -15 -27 -40 6 0
-3 -16 -27 -40 6 0
-3 -15 -28 -40 6 0
-3 -16 -28 -40 6 0
-4 -15 -27 -39 6 0
-4 -16 -27 -39 6 0
-4 -15 -28 -39 6 0
-4 -16 -28 -39 6 0
-4 -15 -27 -40 6 0
-4 -16 -27 -40 6 0
-4 -15 -28 -40 6 0
-4 -16 -28 -40 5 0
-15 -3 18 0
-15 -4 18 0
-16 -3 18 0
-16 -4 17 0
-27 -3 30 0
-27 -4 30 0
-28 -3 30 0
-28 -4 29 0
-39 -3 42 0
-39 -4 42 0
-40 -3 42 0
-40 -4 41 0
-5 -17 -29 -41 8 0
-5 -18 -29 -41 8 0
-5 -17 -30 -41 8 0
-5 -18 -30 -41 8 0
-5 -17 -29 -42 8 0
-5 -18 -29 -42 8 0
-5 -17 -30 -42 8 0
-5 -18 -30 -42 8 0
-6 -17 -29 -41 8 0
-6 -18 -29 -41 8 0
-6 -17 -30 -41 8 0
-6 -18 -30 -41 8 0
-6 -17 -29 -42 8 0
-6 -18 -29 -42 8 0
-6 -17 -30 -42 8 0
-6 -18 -30 -42 7 0
-17 -5 20 0
-17 -6 20 0
-18 -5 20 0
-18 -6 19 0
-29 -5 32 0
-29 -6 32 0
-30 -5 32 0
-30 -6 31 0
-41 -5 44 0
-41 -6 44 0
-42 -5 44 0
-42 -6 43 0
-7 -19 -31 -43 10 0
-7 -20 -31 -43 10 0
-7 -19 -32 -43 10 0
-7 -20 -32 -43 10 0
-7 -19 -31 -44 10 0
-7 -20 -31 -44 10 0
-7 -19 -32 -44 10 0
-7 -20 -32 -44 10 0
-8 -19 -31 -43 10 0
-8 -20 -31 -43 10 0
-8 -19 -32 -43 10 0
-8 -20 -32 -43 10 0
-8 -19 -31 -44 10 0
-8 -20 -31 -44 10 0
-8 -19 -32 -44 10 0
-8 -20 -32 -44 9 0
-19 -7 22 0
-19 -8 22 0
-20 -7 22 0
-20 -8 21 0
-31 -7 34 0
-31 -8 34 0
-32 -7 34 0
-32 -8 33 0
-43 -7 46 0
-43 -8 46 0
-44 -7 46 0
-44 -8 45 0
-9 -21 -33 -45 12 0
-9 -22 -33 -45 12 0
-9 -21 -34 -45 12 0
-9 -22 -34 -45 12 0
-9 -21 -33 -46 12 0
-9 -22 -33 -46 12 0
-9 -21 -34 -46 12 0
-9 -22 -34 -46 12 0
-10 -21 -33 -45 12 0
-10 -22 -33 -45 12 0
-10 -21 -34 -45 12 0
-10 -22 -34 -45 12 0
-10 -21 -33 -46 12 0
-10 -22 -33 -46 12 0
-10 -21 -34 -46 12 0
-10 -22 -34 -46 11 0
-21 -9 24 0
-21 -10 24 0
-22 -9 24 0
-22 -10 23 0
-33 -9 36 0
-33 -10 36 0
-34 -9 36 0
-34 -10 35 0
-45 -9 48 0
-45 -10 48 0
-46 -9 48 0
-46 -10 47 0
50 51 52 53 54 0
57 58 -50 0
1 -57 0
3 -57 0
2 -58 0
4 -58 0
69 70 -50 0
13 -69 0
15 -69 0
14 -70 0
16 -70 0
81 82 -50 0
25 -81 0
27 -81 0
26 -82 0
28 -82 0
93 94 -50 0
37 -93 0
39 -93 0
38 -94 0
40 -94 0
59 60 -51 0
1 -59 0
5 -59 0
2 -60 0
6 -60 0
71 72 -51 0
13 -71 0
17 -71 0
14 -72 0
18 -72 0
83 84 -51 0
25 -83 0
29 -83 0
26 -84 0
30 -84 0
95 96 -51 0
37 -95 0
41 -95 0
38 -96 0
42 -96 0
61 62 -52 0
1 -61 0
7 -61 0
2 -62 0
8 -62 0
73 74 -52 0
13 -73 0
19 -73 0
14 -74 0
20 -74 0
85 86 -52 0
25 -85 0
31 -85 0
26 -86 0
32 -86 0
97 98 -52 0
37 -97 0
43 -97 0
38 -98 0
44 -98 0
63 64 -53 0
1 -63 0
9 -63 0
2 -64 0
10 -64 0
75 76 -53 0
13 -75 0
21 -75 0
14 -76 0
22 -76 0
87 88 -53 0
25 -87 0
33 -87 0
26 -88 0
34 -88 0
99 100 -53 0
37 -99 0
45 -99 0
38 -100 0
46 -100 0
65 66 -54 0
1 -65 0
11 -65 0
2 -66 0
12 -66 0
77 78 -54 0
13 -77 0
23 -77 0
14 -78 0
24 -78 0
89 90 -54 0
25 -89 0
35 -89 0
26 -90 0
36 -90 0
101 102 -54 0
37 -101 0
47 -101 0
38 -102 0
48 -102 0
-1 -13 -25 -37 0
-2 -14 -26 -38 0
-25 -14 0
-37 -14 0
